% seed = 0

mint = 27;
% maxt = 192;

nActs = 92;
dur = [0,3,3,1,2,1,1,2,4,3,1,1,2,3,1,3,3,1,3,2,4,2,1,2,2,3,2,3,1,3,3,2,3,1,1,2,3,2,2,2,4,3,1,1,2,2,3,1,3,1,3,1,2,3,2,3,2,4,2,1,1,2,3,2,3,1,4,4,1,1,2,1,2,3,3,3,2,2,1,3,2,2,2,1,2,3,2,1,3,1,1,0];

nSkills = 12;
sreq = [| 0,0,0,0,0,0,0,0,0,0,0,0,
	| 0,1,0,0,0,1,0,1,0,0,0,0,
	| 0,0,0,0,1,0,1,1,0,0,0,0,
	| 0,0,1,1,0,0,0,0,1,0,0,0,
	| 0,1,0,0,0,0,1,0,0,0,1,0,
	| 0,0,1,0,0,0,1,0,0,0,0,0,
	| 0,0,0,0,0,2,0,1,0,0,0,0,
	| 0,0,0,0,0,0,1,0,1,0,0,0,
	| 0,0,1,1,0,1,0,0,0,0,0,0,
	| 0,0,1,0,0,0,1,0,1,0,0,0,
	| 0,0,0,0,0,0,0,0,1,1,1,0,
	| 0,1,0,0,0,1,0,0,0,1,0,0,
	| 0,0,0,0,0,0,0,0,1,0,0,0,
	| 0,0,0,0,0,0,0,2,0,0,1,0,
	| 0,0,0,0,0,0,0,0,1,0,0,0,
	| 0,0,1,0,0,0,0,0,0,0,1,0,
	| 0,0,1,0,0,0,0,0,0,2,0,0,
	| 0,0,0,0,0,0,0,0,0,0,1,0,
	| 0,0,0,0,0,0,0,0,1,0,0,0,
	| 0,0,0,0,0,0,0,0,1,0,0,0,
	| 0,0,0,0,0,0,1,0,1,0,0,0,
	| 0,0,0,0,1,0,0,0,0,0,1,0,
	| 0,0,0,0,0,0,0,0,0,0,1,0,
	| 0,0,1,0,0,0,0,0,0,0,1,0,
	| 0,0,0,0,0,0,0,0,1,0,0,0,
	| 0,0,1,0,0,0,0,1,0,0,0,0,
	| 0,0,0,0,0,0,0,0,1,0,0,0,
	| 0,0,1,1,0,0,0,0,0,0,0,0,
	| 0,0,0,0,0,0,0,1,0,0,0,0,
	| 0,0,1,1,0,1,0,0,0,0,0,0,
	| 0,0,1,0,0,0,1,0,0,0,0,0,
	| 0,1,0,0,0,0,0,0,0,0,1,0,
	| 0,0,0,0,0,0,1,0,0,0,0,0,
	| 0,1,0,0,0,1,0,0,1,0,0,0,
	| 0,0,1,0,0,0,1,1,0,0,0,0,
	| 0,0,0,0,0,0,0,0,0,1,0,0,
	| 0,0,0,0,0,0,0,0,1,0,0,0,
	| 0,0,2,0,0,1,0,0,0,0,0,0,
	| 0,0,1,0,0,0,0,1,1,0,0,0,
	| 0,0,0,0,0,1,0,0,0,0,2,0,
	| 0,0,0,0,0,1,0,0,1,0,0,0,
	| 0,1,0,0,0,0,1,0,0,0,1,0,
	| 0,0,1,0,0,0,0,0,0,0,0,0,
	| 0,0,0,0,0,0,0,0,0,0,1,0,
	| 0,0,0,0,0,0,0,1,0,0,0,0,
	| 0,1,0,0,0,0,0,0,0,0,1,0,
	| 0,0,0,0,0,0,1,0,0,0,1,0,
	| 0,0,0,1,0,0,0,0,0,0,0,0,
	| 0,0,0,0,0,0,0,0,0,1,0,0,
	| 0,0,1,0,0,0,0,0,1,1,0,0,
	| 0,0,0,0,0,1,0,0,1,0,0,0,
	| 0,0,0,0,0,1,0,0,0,0,1,0,
	| 0,1,0,0,0,0,0,0,1,0,1,0,
	| 0,0,1,0,0,0,0,0,0,0,0,0,
	| 0,1,0,0,0,1,0,0,1,0,0,0,
	| 1,0,0,0,0,0,0,0,0,0,0,0,
	| 0,0,2,0,0,0,0,0,1,0,0,0,
	| 0,0,1,0,0,0,0,1,0,0,0,0,
	| 0,0,1,1,0,0,0,0,0,0,0,0,
	| 0,0,1,0,0,0,0,0,0,0,0,0,
	| 0,0,1,0,1,0,0,0,1,0,0,0,
	| 0,0,1,1,0,0,0,0,1,0,0,0,
	| 0,0,0,0,0,1,0,0,0,0,0,0,
	| 0,0,1,0,0,0,0,0,2,0,0,0,
	| 0,0,0,0,0,0,0,2,0,0,0,0,
	| 0,0,0,0,0,0,0,0,1,0,0,0,
	| 0,0,0,1,0,0,0,0,0,0,0,0,
	| 0,0,1,0,0,0,0,0,0,0,0,0,
	| 0,0,0,0,0,0,0,1,1,0,0,0,
	| 0,1,0,0,0,0,0,0,2,0,0,0,
	| 0,0,2,0,0,0,0,0,0,0,0,0,
	| 0,0,0,0,0,0,0,1,1,0,0,0,
	| 0,0,0,0,0,0,0,0,0,1,0,0,
	| 0,0,0,0,0,0,1,0,0,0,0,0,
	| 0,0,1,0,0,0,0,0,0,0,0,1,
	| 0,1,0,0,0,1,0,0,0,1,0,0,
	| 0,0,2,0,0,1,0,0,0,0,0,0,
	| 0,0,0,0,0,1,0,0,1,1,0,0,
	| 0,0,2,0,0,0,0,1,0,0,0,0,
	| 0,1,0,0,0,0,0,0,0,0,0,0,
	| 1,0,0,0,0,0,0,0,0,0,0,0,
	| 0,0,1,0,0,0,0,0,0,0,0,0,
	| 0,0,1,0,0,1,1,0,0,0,0,0,
	| 0,0,1,0,0,0,0,0,0,0,1,0,
	| 1,0,0,0,0,0,0,0,0,1,1,0,
	| 0,0,0,0,0,0,0,0,0,1,1,0,
	| 0,0,0,0,0,0,1,0,0,0,0,0,
	| 0,0,0,0,0,0,0,0,1,0,1,0,
	| 0,0,0,0,0,0,0,1,1,0,0,0,
	| 0,0,0,0,1,0,0,0,0,0,0,0,
	| 0,1,1,0,0,1,0,0,0,0,0,0,
	| 0,0,0,0,0,0,0,0,0,0,0,0, |];

% SumOfsreq = 182;

nResources = 11;
mastery = [| false,false,false,false,false,false,false,false,false,true,true,true,
	| false,true,true,false,false,true,false,false,false,false,false,false,
	| false,true,true,false,false,false,false,false,false,false,false,false,
	| false,false,false,false,false,true,false,true,true,false,false,false,
	| false,false,false,false,false,false,true,true,true,false,false,false,
	| true,true,true,false,false,false,false,false,false,false,true,true,
	| false,false,false,true,true,true,false,false,true,false,false,false,
	| false,false,false,true,true,true,false,false,true,true,true,true,
	| false,false,false,false,false,false,true,true,true,false,false,false,
	| false,false,true,false,false,false,false,false,false,false,false,true,
	| false,false,false,false,false,false,false,false,false,true,true,true, |];

nPrecs = 138;
pred = [1,1,1,2,2,3,3,4,4,4,5,5,5,6,6,7,7,7,8,8,8,9,9,9,10,11,11,11,12,13,13,13,14,15,16,16,17,17,18,19,19,19,20,20,20,21,21,22,22,22,23,23,24,24,25,25,25,26,26,27,28,29,29,29,30,30,31,32,32,32,33,34,35,36,36,37,38,38,39,40,41,42,42,43,44,44,45,45,46,47,48,49,50,51,52,53,53,54,55,56,57,58,59,60,61,62,63,64,65,66,67,68,69,70,71,72,73,73,74,75,76,76,76,77,78,79,80,81,82,83,84,85,86,87,88,89,90,91];
succ = [2,3,4,6,54,9,35,69,5,8,11,13,7,17,46,67,39,31,19,36,24,10,12,16,64,28,77,15,80,20,21,14,48,44,18,22,25,23,40,33,71,23,65,34,42,26,43,69,30,62,49,37,58,27,61,29,78,46,71,45,73,51,85,32,83,45,85,66,38,47,70,57,41,81,64,61,50,56,71,73,76,67,63,55,73,52,74,59,82,56,53,70,68,75,60,79,55,75,70,91,90,72,82,81,62,81,76,84,88,68,88,72,76,80,88,89,84,78,77,86,78,79,86,91,85,83,86,82,84,89,87,87,87,89,91,92,92,92];

nUnrels = 3195;
unpred = [2,2,2,2,2,2,2,2,2,2,2,2,2,2,2,2,2,2,2,2,2,2,2,2,2,2,2,2,2,2,2,2,2,2,2,2,2,2,2,2,2,2,2,2,2,2,2,2,2,2,2,2,2,2,2,2,2,3,3,3,3,3,3,3,3,3,3,3,3,3,3,3,3,3,3,3,3,3,3,3,3,3,3,3,3,3,3,3,3,3,3,3,3,3,3,3,3,3,3,3,3,3,3,3,3,3,3,3,3,3,3,3,3,3,4,4,4,4,4,4,4,4,4,4,4,4,4,4,4,4,4,4,4,4,4,4,4,4,5,5,5,5,5,5,5,5,5,5,5,5,5,5,5,5,5,5,5,5,5,5,5,5,5,5,5,5,5,5,5,5,5,5,5,5,5,5,5,5,5,5,6,6,6,6,6,6,6,6,6,6,6,6,6,6,6,6,6,6,6,6,6,6,6,6,6,6,6,6,6,6,6,6,6,6,6,6,6,6,6,6,6,6,6,6,6,6,6,6,6,6,6,6,6,6,6,7,7,7,7,7,7,7,7,7,7,7,7,7,7,7,7,7,7,7,7,7,7,7,7,7,7,7,7,7,7,7,7,7,7,7,7,7,7,7,7,7,7,7,7,7,7,7,7,7,7,7,7,7,7,7,7,7,7,7,7,7,7,7,7,7,7,7,7,7,7,7,7,7,7,7,8,8,8,8,8,8,8,8,8,8,8,8,8,8,8,8,8,8,8,8,8,8,8,8,8,8,8,8,8,8,8,8,8,8,8,8,8,8,8,8,8,8,8,8,8,8,8,8,8,8,8,8,8,8,8,9,9,9,9,9,9,9,9,9,9,9,9,9,9,9,9,9,9,9,9,9,9,9,9,9,9,9,9,9,9,9,9,9,9,9,9,9,9,9,9,9,9,9,9,9,9,9,9,9,9,9,9,9,9,10,10,10,10,10,10,10,10,10,10,10,10,10,10,10,10,10,10,10,10,10,10,10,10,10,10,10,10,10,10,10,10,10,10,10,10,10,10,10,10,10,10,10,10,10,10,10,10,10,10,10,10,10,10,10,10,10,10,10,10,10,10,10,10,10,10,10,10,10,10,10,10,10,10,10,10,10,11,11,11,11,11,11,11,11,11,11,11,11,11,11,11,11,11,11,11,11,11,11,11,11,11,11,11,11,11,11,11,11,11,11,11,11,11,11,11,11,11,11,11,11,11,11,11,11,11,11,11,11,11,11,11,11,11,11,11,11,11,11,11,11,11,12,12,12,12,12,12,12,12,12,12,12,12,12,12,12,12,12,12,12,12,12,12,12,12,12,12,12,12,12,12,12,12,12,12,12,12,12,12,12,12,12,12,12,12,12,12,12,12,12,12,12,12,12,12,12,12,12,12,12,12,12,12,12,12,12,12,12,12,12,12,12,12,12,12,12,13,13,13,13,13,13,13,13,13,13,13,13,13,13,13,13,13,13,13,13,13,13,13,13,13,13,13,13,13,13,13,13,13,13,13,13,13,13,13,13,13,13,13,13,13,13,13,14,14,14,14,14,14,14,14,14,14,14,14,14,14,14,14,14,14,14,14,14,14,14,14,14,14,14,14,14,14,14,14,14,14,14,14,14,14,14,14,14,14,14,14,14,14,14,14,14,14,14,14,14,14,14,14,14,14,14,14,14,14,14,14,14,14,14,15,15,15,15,15,15,15,15,15,15,15,15,15,15,15,15,15,15,15,15,15,15,15,15,15,15,15,15,15,15,15,15,15,15,15,15,15,15,15,15,15,15,15,15,15,15,15,15,15,15,15,15,15,15,15,15,15,15,15,15,15,15,15,15,15,16,16,16,16,16,16,16,16,16,16,16,16,16,16,16,16,16,16,16,16,16,16,16,16,16,16,16,16,16,16,16,16,16,16,16,16,16,16,16,16,16,16,16,16,16,16,16,16,16,16,16,16,17,17,17,17,17,17,17,17,17,17,17,17,17,17,17,17,17,17,17,17,17,17,17,17,17,17,17,17,17,17,17,17,17,17,17,17,17,17,17,17,17,17,17,17,17,17,18,18,18,18,18,18,18,18,18,18,18,18,18,18,18,18,18,18,18,18,18,18,18,18,18,18,18,18,18,18,18,18,18,18,18,18,18,18,18,18,18,18,18,18,18,18,18,18,18,18,18,18,18,18,18,18,18,18,18,18,18,18,18,18,18,18,19,19,19,19,19,19,19,19,19,19,19,19,19,19,19,19,19,19,19,19,19,19,19,19,19,19,19,19,19,19,19,19,19,19,19,19,19,19,19,19,19,19,19,19,19,19,19,19,19,19,19,19,19,19,19,20,20,20,20,20,20,20,20,20,20,20,20,20,20,20,20,20,20,20,20,20,20,20,20,20,20,20,20,20,20,20,20,20,20,20,20,20,20,20,20,20,20,20,20,20,20,20,20,20,20,20,20,20,20,21,21,21,21,21,21,21,21,21,21,21,21,21,21,21,21,21,21,21,21,21,21,21,21,21,21,21,21,21,21,21,21,21,21,21,21,21,21,21,21,21,21,21,21,21,21,21,21,21,21,21,21,21,21,21,21,22,22,22,22,22,22,22,22,22,22,22,22,22,22,22,22,22,22,22,22,22,22,22,22,22,22,22,22,22,22,22,22,22,22,22,22,22,22,22,22,22,22,22,22,22,22,22,22,22,22,23,23,23,23,23,23,23,23,23,23,23,23,23,23,23,23,23,23,23,23,23,23,23,23,23,23,23,23,23,23,23,23,23,23,23,23,23,23,23,23,23,23,23,23,23,23,23,23,23,23,23,23,23,23,23,23,24,24,24,24,24,24,24,24,24,24,24,24,24,24,24,24,24,24,24,24,24,24,24,24,24,24,24,24,24,24,24,24,24,24,24,24,24,24,24,24,24,24,24,24,24,24,24,24,24,24,24,24,24,24,24,25,25,25,25,25,25,25,25,25,25,25,25,25,25,25,25,25,25,25,25,25,25,25,25,25,25,25,25,25,25,25,25,25,25,25,25,25,25,25,25,25,25,25,25,26,26,26,26,26,26,26,26,26,26,26,26,26,26,26,26,26,26,26,26,26,26,26,26,26,26,26,26,26,26,26,26,26,26,26,26,26,26,26,26,26,26,26,26,26,26,26,26,26,26,26,26,26,26,26,26,26,27,27,27,27,27,27,27,27,27,27,27,27,27,27,27,27,27,27,27,27,27,27,27,27,27,27,27,27,27,27,27,27,27,27,27,27,27,27,27,27,27,27,27,27,27,27,27,27,27,27,27,27,27,27,27,28,28,28,28,28,28,28,28,28,28,28,28,28,28,28,28,28,28,28,28,28,28,28,28,28,28,28,28,28,28,28,28,28,28,28,28,28,28,28,28,28,28,28,28,28,28,28,28,28,28,28,28,28,28,28,28,28,29,29,29,29,29,29,29,29,29,29,29,29,29,29,29,29,29,29,29,29,29,29,29,29,29,29,29,29,29,29,29,29,29,29,29,29,29,29,29,29,29,29,29,29,29,29,29,30,30,30,30,30,30,30,30,30,30,30,30,30,30,30,30,30,30,30,30,30,30,30,30,30,30,30,30,30,30,30,30,30,30,30,30,30,30,30,30,30,30,30,30,30,30,30,30,30,30,30,31,31,31,31,31,31,31,31,31,31,31,31,31,31,31,31,31,31,31,31,31,31,31,31,31,31,31,31,31,31,31,31,31,31,31,31,31,31,31,31,31,31,31,31,31,31,31,31,31,31,31,31,31,31,31,31,31,32,32,32,32,32,32,32,32,32,32,32,32,32,32,32,32,32,32,32,32,32,32,32,32,32,32,32,32,32,32,32,32,32,32,32,32,32,32,32,32,32,32,32,32,32,32,32,32,32,32,33,33,33,33,33,33,33,33,33,33,33,33,33,33,33,33,33,33,33,33,33,33,33,33,33,33,33,33,33,33,33,33,33,33,33,33,33,33,33,33,33,33,33,33,33,33,33,33,33,33,33,33,33,34,34,34,34,34,34,34,34,34,34,34,34,34,34,34,34,34,34,34,34,34,34,34,34,34,34,34,34,34,34,34,34,34,34,34,34,34,34,34,34,34,34,34,34,34,34,34,34,34,34,34,34,34,34,34,35,35,35,35,35,35,35,35,35,35,35,35,35,35,35,35,35,35,35,35,35,35,35,35,35,35,35,35,35,35,35,35,35,35,35,35,35,35,35,35,35,35,35,35,35,35,35,36,36,36,36,36,36,36,36,36,36,36,36,36,36,36,36,36,36,36,36,36,36,36,36,36,36,36,36,36,36,36,36,36,36,36,36,36,36,36,36,36,36,36,36,36,36,36,36,36,37,37,37,37,37,37,37,37,37,37,37,37,37,37,37,37,37,37,37,37,37,37,37,37,37,37,37,37,37,37,37,37,37,37,37,37,37,37,37,37,37,37,37,37,37,37,37,38,38,38,38,38,38,38,38,38,38,38,38,38,38,38,38,38,38,38,38,38,38,38,38,38,38,38,38,38,38,38,38,38,38,38,38,38,38,38,38,38,38,38,38,38,38,38,39,39,39,39,39,39,39,39,39,39,39,39,39,39,39,39,39,39,39,39,39,39,39,39,39,39,39,39,39,39,39,39,39,39,39,39,39,39,39,39,39,39,39,39,39,39,39,39,39,40,40,40,40,40,40,40,40,40,40,40,40,40,40,40,40,40,40,40,40,40,40,40,40,40,40,40,40,40,40,40,40,40,40,40,40,40,40,40,40,40,40,40,40,40,41,41,41,41,41,41,41,41,41,41,41,41,41,41,41,41,41,41,41,41,41,41,41,41,41,41,41,41,41,41,41,41,41,41,41,41,41,41,41,41,41,41,42,42,42,42,42,42,42,42,42,42,42,42,42,42,42,42,42,42,42,42,42,42,42,42,42,42,42,42,42,42,42,42,42,42,42,42,42,43,43,43,43,43,43,43,43,43,43,43,43,43,43,43,43,43,43,43,43,43,43,43,43,43,43,43,43,43,43,43,43,43,43,43,43,43,43,43,43,43,43,44,44,44,44,44,44,44,44,44,44,44,44,44,44,44,44,44,44,44,44,44,44,44,44,44,44,44,44,44,44,44,44,44,44,44,44,44,45,45,45,45,45,45,45,45,45,45,45,45,45,45,45,45,45,45,45,45,45,45,45,45,45,45,45,45,45,45,45,45,45,45,45,45,45,45,46,46,46,46,46,46,46,46,46,46,46,46,46,46,46,46,46,46,46,46,46,46,46,46,46,46,46,46,46,46,46,46,46,46,46,46,46,46,46,46,46,47,47,47,47,47,47,47,47,47,47,47,47,47,47,47,47,47,47,47,47,47,47,47,47,47,47,47,47,47,47,47,47,47,47,47,47,47,47,47,47,47,47,48,48,48,48,48,48,48,48,48,48,48,48,48,48,48,48,48,48,48,48,48,48,48,48,48,48,48,48,48,48,48,48,48,48,49,49,49,49,49,49,49,49,49,49,49,49,49,49,49,49,49,49,49,49,49,49,49,49,49,49,49,49,49,49,49,49,49,49,49,49,49,50,50,50,50,50,50,50,50,50,50,50,50,50,50,50,50,50,50,50,50,50,50,50,50,50,50,50,50,50,50,50,50,50,50,50,50,50,50,51,51,51,51,51,51,51,51,51,51,51,51,51,51,51,51,51,51,51,51,51,51,51,51,51,51,51,51,51,51,51,51,51,51,51,51,52,52,52,52,52,52,52,52,52,52,52,52,52,52,52,52,52,52,52,52,52,52,52,52,52,52,52,52,52,52,52,52,52,53,53,53,53,53,53,53,53,53,53,53,53,53,53,53,53,53,53,53,53,53,53,53,53,53,53,53,53,53,53,54,54,54,54,54,54,54,54,54,54,54,54,54,54,54,54,54,54,54,54,54,54,54,54,54,54,54,54,54,54,54,54,54,55,55,55,55,55,55,55,55,55,55,55,55,55,55,55,55,55,55,55,55,55,55,55,55,55,55,55,55,55,55,55,56,56,56,56,56,56,56,56,56,56,56,56,56,56,56,56,56,56,56,56,56,56,56,56,56,56,56,56,56,56,56,56,56,56,57,57,57,57,57,57,57,57,57,57,57,57,57,57,57,57,57,57,57,57,57,57,57,57,57,57,57,57,57,57,57,57,57,58,58,58,58,58,58,58,58,58,58,58,58,58,58,58,58,58,58,58,58,58,58,58,58,58,58,58,58,58,58,58,59,59,59,59,59,59,59,59,59,59,59,59,59,59,59,59,59,59,59,59,59,59,59,59,59,59,59,59,60,60,60,60,60,60,60,60,60,60,60,60,60,60,60,60,60,60,60,60,60,60,60,60,60,60,61,61,61,61,61,61,61,61,61,61,61,61,61,61,61,61,61,61,61,61,61,61,61,61,62,62,62,62,62,62,62,62,62,62,62,62,62,62,62,62,62,62,62,62,62,62,62,62,63,63,63,63,63,63,63,63,63,63,63,63,63,63,63,63,63,63,63,63,64,64,64,64,64,64,64,64,64,64,64,64,64,64,64,64,64,64,64,64,64,64,64,64,65,65,65,65,65,65,65,65,65,65,65,65,65,65,65,65,65,65,65,65,65,65,65,65,66,66,66,66,66,66,66,66,66,66,66,66,66,66,66,66,66,66,66,66,66,66,67,67,67,67,67,67,67,67,67,67,67,67,67,67,67,67,67,67,67,67,67,67,68,68,68,68,68,68,68,68,68,68,68,68,68,68,68,68,68,68,68,68,68,69,69,69,69,69,69,69,69,69,69,69,69,69,69,70,70,70,70,70,70,70,70,70,70,70,70,70,70,70,70,70,71,71,71,71,71,71,71,71,71,71,71,71,71,71,71,71,71,71,72,72,72,72,72,72,72,72,72,72,72,72,72,72,72,72,72,72,73,73,73,73,73,73,73,73,73,73,73,73,73,74,74,74,74,74,74,74,74,74,74,74,74,74,74,74,75,75,75,75,75,75,75,75,75,75,75,75,75,76,76,76,76,76,76,76,76,77,77,77,77,77,77,77,77,77,77,77,77,77,78,78,78,78,78,78,78,78,78,78,79,79,79,79,79,79,79,79,79,79,80,80,80,80,80,80,80,80,81,81,81,81,81,81,82,82,82,82,82,82,83,83,83,83,83,83,83,84,84,84,84,84,85,85,85,85,86,86,86,87,87,87,88,88,89,89,90];
unsucc = [3,4,5,7,8,9,10,11,12,13,14,15,16,18,19,20,21,22,24,26,27,28,30,31,33,34,35,36,39,40,41,42,43,44,45,48,52,53,55,57,58,59,60,63,64,65,67,69,71,73,74,76,77,79,83,88,90,4,5,6,7,8,11,13,14,15,17,19,20,21,23,24,25,26,27,28,29,31,32,33,34,36,37,38,39,42,43,44,46,47,48,49,50,51,52,53,54,55,56,57,58,60,61,63,65,66,67,68,70,71,72,75,88,90,6,9,10,12,16,17,18,22,25,29,30,32,35,38,40,41,47,50,51,54,56,66,68,75,6,8,9,10,12,16,17,18,19,22,23,24,25,27,29,30,32,33,35,36,37,38,40,41,45,47,49,50,51,54,56,58,59,61,62,64,66,68,69,72,74,75,7,8,9,10,11,12,13,14,15,16,18,19,20,21,22,24,26,27,28,30,31,33,34,35,36,39,40,41,42,43,44,45,48,52,53,54,55,57,58,59,60,63,64,65,67,69,71,73,74,76,77,79,83,88,90,8,9,10,11,12,13,14,15,16,17,18,19,20,21,22,23,24,25,26,27,28,29,30,32,33,34,35,36,37,38,40,41,42,43,44,45,46,47,48,49,50,51,52,53,54,55,56,57,58,59,60,61,62,63,64,65,66,68,69,70,72,73,74,75,76,77,78,79,80,81,82,83,84,86,90,9,10,11,12,13,14,15,16,17,18,20,21,22,25,26,28,29,30,31,32,34,35,38,39,40,41,42,43,44,46,47,48,50,51,52,53,54,55,56,57,60,63,65,66,67,68,69,73,75,76,78,79,83,85,90,11,13,14,15,17,19,20,21,23,24,25,26,27,28,29,31,32,33,34,35,36,37,38,39,41,42,43,44,46,47,48,49,50,51,52,53,54,55,56,57,58,60,61,63,65,66,67,68,70,71,72,75,88,90,11,12,13,14,15,16,17,18,19,20,21,22,23,24,25,26,27,28,29,30,31,32,33,34,35,36,37,38,39,40,41,42,43,44,45,46,47,48,49,50,51,52,53,54,55,56,57,58,59,60,61,62,63,65,66,67,68,69,70,71,72,73,74,75,76,77,78,79,80,81,82,83,85,86,88,90,91,12,13,14,16,17,18,19,20,21,22,23,24,25,26,27,29,30,31,32,33,34,35,36,37,38,39,40,41,42,43,45,46,47,48,49,50,51,53,54,55,56,57,58,59,61,62,63,64,65,66,67,68,69,70,71,72,74,75,76,79,80,83,86,88,90,13,14,15,16,17,18,19,20,21,22,23,24,25,26,27,28,29,30,31,32,33,34,35,36,37,38,39,40,41,42,43,44,45,46,47,48,49,50,51,52,53,54,55,56,57,58,59,60,61,62,63,64,65,66,67,68,69,70,71,72,73,74,75,76,77,78,79,81,82,83,84,85,88,90,91,15,16,17,18,19,22,23,24,25,27,28,29,30,31,32,33,35,36,37,38,39,40,41,44,45,47,49,50,51,52,54,56,58,59,60,61,62,64,66,68,69,72,73,74,75,77,81,15,16,17,18,19,20,21,22,23,24,25,26,27,28,29,30,31,32,33,34,35,36,37,38,39,40,41,42,43,44,45,46,47,49,50,51,52,54,56,57,58,59,60,61,62,63,64,65,66,67,68,69,71,72,73,74,75,76,77,78,81,82,84,85,88,90,91,16,17,18,19,20,21,22,23,24,25,26,27,28,29,30,31,32,33,34,35,36,37,38,39,40,41,42,43,45,46,47,48,49,50,51,53,54,55,56,57,58,59,61,62,63,64,65,66,67,68,69,70,71,72,74,75,76,77,79,80,83,86,88,90,91,17,19,20,21,23,24,25,26,27,28,29,31,32,33,34,35,36,37,38,39,41,42,43,44,46,47,48,49,50,51,52,53,54,55,56,57,58,60,61,63,64,65,66,67,68,70,71,72,75,80,88,90,18,19,20,21,22,24,26,27,28,30,31,33,34,35,36,39,40,41,42,43,44,45,46,48,52,53,54,55,57,58,59,60,63,64,65,67,69,71,73,74,76,77,79,83,88,90,19,20,21,22,23,24,25,26,27,28,29,30,31,32,33,34,35,36,37,38,39,41,42,43,44,45,46,47,48,49,50,51,52,53,54,55,56,57,58,59,60,61,62,63,64,65,66,67,68,69,70,71,72,74,75,76,77,79,80,81,82,83,86,88,90,91,20,21,22,24,25,26,27,28,29,30,31,32,34,35,36,38,39,40,41,42,43,44,45,46,47,48,50,51,52,53,54,55,56,57,58,59,60,63,64,65,66,67,68,69,72,73,74,75,76,77,78,79,83,85,90,21,22,23,24,25,26,27,28,29,30,31,32,33,35,36,37,38,39,40,41,43,44,45,46,47,48,49,50,51,52,53,54,55,56,58,59,60,61,62,64,66,68,69,70,71,72,73,74,75,77,80,81,82,84,22,23,24,25,27,28,29,30,31,32,33,34,35,36,37,38,39,40,41,42,44,45,47,48,49,50,51,52,53,54,56,57,58,59,60,61,62,63,64,65,66,67,68,69,72,73,74,75,76,77,78,79,81,83,85,90,23,24,25,26,27,28,29,31,32,33,34,35,36,37,38,39,40,41,42,43,44,46,47,48,49,50,51,52,53,54,55,56,57,58,60,61,63,64,65,66,67,68,70,71,72,73,75,80,88,90,24,25,26,27,28,29,30,31,32,33,34,35,36,38,39,40,41,42,43,44,45,46,47,48,50,51,52,53,54,55,56,57,58,59,60,63,64,65,66,67,68,69,71,72,73,74,75,76,77,78,79,83,85,88,90,91,25,26,28,29,30,31,32,33,34,35,36,37,38,39,40,41,42,43,44,46,47,48,49,50,51,52,53,54,55,56,57,60,61,62,63,64,65,66,67,68,69,70,71,73,75,76,78,79,80,81,83,85,86,88,90,26,27,28,30,31,33,34,35,36,37,39,40,41,42,43,44,45,46,48,49,52,53,54,55,57,58,59,60,63,64,65,67,69,70,71,73,74,76,77,79,80,83,88,90,27,28,29,30,31,32,33,34,35,36,37,38,39,40,41,42,43,44,45,47,48,49,50,51,52,53,54,55,56,57,58,59,60,61,62,63,64,65,66,67,68,69,70,72,73,74,75,76,77,78,79,80,81,83,85,86,90,28,29,30,31,32,33,34,35,36,37,38,39,40,41,42,43,44,46,47,48,49,50,51,52,53,54,55,56,57,58,60,61,62,63,64,65,66,67,68,69,70,71,72,73,75,76,78,79,80,81,83,85,86,88,90,29,30,31,32,33,34,35,36,37,38,39,40,41,42,43,44,45,46,47,48,49,50,51,52,53,54,55,56,57,58,59,60,61,62,63,64,65,66,67,68,69,70,71,72,74,75,76,77,79,80,81,82,83,86,88,90,91,30,31,33,34,35,36,37,39,40,41,42,43,44,45,46,48,49,52,53,54,55,57,58,59,60,61,62,63,64,65,67,69,70,71,73,74,76,77,78,79,80,81,82,83,84,88,90,31,32,33,34,35,36,37,38,39,40,41,42,43,44,46,47,48,49,50,51,52,53,54,55,56,57,58,60,61,62,63,64,65,66,67,68,69,70,71,72,73,75,76,78,79,80,81,85,86,88,90,32,33,34,35,36,37,38,39,40,41,42,43,44,45,46,47,48,49,50,51,52,53,54,55,56,57,58,59,60,61,62,63,64,65,66,67,68,69,70,71,72,73,74,75,76,77,78,79,80,81,82,83,84,86,88,90,91,33,34,35,36,37,39,40,41,42,43,44,45,46,48,49,51,52,53,54,55,57,58,59,60,61,62,63,64,65,67,69,70,71,73,74,75,76,77,78,79,80,81,82,83,84,85,86,87,88,90,34,35,36,37,38,39,40,41,42,43,44,45,46,47,48,49,50,51,52,53,54,55,56,57,58,59,60,61,62,63,64,65,66,67,68,69,71,72,73,74,75,76,77,78,79,81,82,83,84,85,88,90,91,35,36,37,38,39,40,41,42,43,44,45,46,47,48,49,50,51,52,53,54,55,56,58,59,60,61,62,63,64,65,66,67,68,69,70,71,72,73,74,75,76,77,78,79,80,81,82,83,84,85,86,87,88,89,91,36,37,38,39,40,42,43,44,45,46,47,48,49,50,51,52,53,54,55,56,57,58,59,60,61,62,63,64,65,66,67,68,69,70,71,72,73,74,75,77,80,81,82,84,88,90,91,37,38,39,40,41,42,43,44,45,46,47,48,49,50,51,52,53,54,55,56,57,58,59,60,61,62,63,65,66,67,68,69,70,71,72,73,74,75,76,77,78,79,80,83,85,86,88,90,91,38,39,40,41,42,43,44,45,46,47,48,49,50,51,52,53,54,55,56,57,58,59,60,63,64,65,66,67,68,69,70,71,72,73,74,75,76,77,78,79,80,83,85,86,88,90,91,39,40,41,42,43,44,45,46,47,48,49,51,52,53,54,55,57,58,59,60,61,62,63,64,65,66,67,69,70,71,73,74,75,76,77,78,79,80,81,82,83,84,85,86,87,88,90,40,41,42,43,44,45,46,47,48,49,50,51,52,53,54,55,56,57,58,59,60,61,62,63,64,65,66,67,68,69,70,72,73,74,75,76,77,78,79,80,81,82,83,84,85,86,87,89,90,41,42,43,44,45,46,47,48,49,50,51,52,53,54,55,56,57,58,59,60,61,62,63,64,65,66,67,68,69,70,71,72,74,75,76,77,79,80,81,82,83,86,88,90,91,42,43,44,45,46,47,48,49,50,51,52,53,54,55,56,57,58,59,60,61,62,63,64,65,66,67,68,69,70,71,72,73,74,75,77,80,81,82,84,88,90,91,43,44,45,46,47,48,49,50,51,52,53,54,55,56,57,58,59,60,61,62,64,65,66,68,69,70,71,72,73,74,75,77,80,81,82,84,90,44,45,46,47,48,49,50,51,52,53,54,56,57,58,59,60,61,62,63,64,65,66,67,68,69,71,72,73,74,75,76,77,78,79,81,82,83,84,85,88,90,91,45,46,47,48,49,50,51,53,54,55,56,57,58,59,61,62,63,64,65,66,67,68,69,70,71,72,74,75,76,77,79,80,83,86,88,90,91,46,47,48,49,50,51,52,53,54,55,56,57,58,60,61,62,63,64,65,66,67,68,69,70,71,72,73,75,76,78,79,80,81,83,85,86,88,90,47,48,49,50,51,52,53,54,55,56,57,58,59,60,61,62,63,64,65,66,67,68,69,70,71,72,73,74,75,76,77,78,79,80,81,83,85,86,88,90,91,48,49,50,51,52,53,54,55,57,58,59,60,61,62,63,64,65,66,67,68,69,70,71,72,73,74,75,76,77,78,79,80,81,82,83,84,85,86,87,88,89,90,49,50,51,52,54,56,57,58,59,60,61,62,63,64,65,66,67,68,69,71,72,73,74,75,76,77,78,81,82,84,85,88,90,91,50,51,52,53,54,55,56,57,58,59,60,61,62,63,64,65,66,67,68,69,71,72,73,74,75,76,77,78,79,81,82,83,84,85,88,90,91,51,52,53,54,55,56,57,58,59,60,61,62,63,64,65,66,67,69,70,71,73,74,75,76,77,78,79,80,81,82,83,84,85,86,87,88,90,91,52,53,54,55,56,57,58,59,60,61,62,63,64,65,66,67,68,69,70,71,72,73,74,76,77,78,79,80,81,82,83,84,85,88,90,91,53,54,55,56,57,58,59,61,62,63,64,65,66,67,68,69,70,71,72,73,74,75,76,77,78,79,80,83,85,86,88,90,91,54,56,57,58,59,60,61,62,63,64,65,66,67,68,69,71,72,73,74,75,76,77,78,81,82,84,85,88,90,91,55,56,57,58,59,60,61,62,63,64,65,66,67,68,69,70,71,72,73,74,76,77,78,79,80,81,82,83,84,85,88,90,91,56,57,58,59,60,61,62,63,64,65,66,67,68,69,71,72,73,74,75,76,77,78,79,81,82,83,84,85,88,90,91,57,58,59,60,61,62,63,64,65,66,67,68,69,70,71,72,73,74,75,76,77,78,79,80,81,82,83,84,85,86,87,88,89,90,58,59,60,61,62,63,64,65,66,67,68,69,70,71,72,73,74,75,76,77,78,79,80,81,82,83,84,85,86,87,88,89,91,59,60,61,62,63,64,65,66,67,68,69,70,71,73,74,75,76,77,78,79,80,81,82,83,84,85,86,87,88,90,91,60,61,62,63,64,65,66,67,68,69,70,71,72,73,74,75,76,77,78,79,80,81,83,85,86,88,90,91,61,62,63,64,65,66,67,68,69,70,71,72,73,74,75,76,77,78,79,80,83,85,86,88,90,91,63,64,65,66,67,68,69,70,71,72,73,74,75,76,77,78,79,80,83,85,86,88,90,91,63,64,65,66,67,68,69,70,71,72,73,74,75,76,77,78,79,80,83,85,86,88,90,91,64,65,66,67,68,69,70,71,72,73,74,75,77,80,81,82,84,88,90,91,65,66,67,68,69,70,71,72,73,74,75,76,77,78,79,80,81,82,83,85,86,88,90,91,66,67,68,69,70,71,72,73,74,75,76,77,78,79,80,81,82,83,84,85,86,87,89,90,67,69,70,71,73,74,75,76,77,78,79,80,81,82,83,84,85,86,87,88,90,91,68,69,70,71,72,73,74,75,76,77,78,79,80,81,82,83,84,85,86,87,89,90,69,70,71,73,74,75,76,77,78,79,80,81,82,83,84,85,86,87,88,90,91,70,71,72,73,74,75,77,80,81,82,84,88,90,91,71,72,73,74,75,76,77,78,79,81,82,83,84,85,88,90,91,72,73,74,75,76,77,78,79,80,81,82,83,84,85,86,87,89,90,73,74,75,76,77,78,79,80,81,82,83,84,85,86,87,88,90,91,74,75,76,77,79,80,81,82,83,86,88,90,91,75,76,78,79,80,81,82,83,84,85,86,87,88,89,90,76,77,78,79,80,81,82,83,84,85,88,90,91,77,80,81,82,84,88,90,91,78,79,80,81,82,83,84,85,86,87,88,89,90,79,80,81,82,83,84,86,88,90,91,80,81,82,84,85,86,87,88,90,91,81,82,83,84,85,88,90,91,83,85,86,88,90,91,83,85,86,88,90,91,84,85,86,87,88,90,91,85,86,88,90,91,86,88,90,91,88,90,91,88,90,91,89,90,90,91,91];

USEFUL_RES = [{},
	{2,3,4,5,6,7,8,9},
	{4,5,7,8,9},
	{2,3,4,5,6,7,8,9,10},
	{1,2,3,5,6,8,9,11},
	{2,3,5,6,9,10},
	{2,4,5,7,8,9},
	{4,5,7,8,9},
	{2,3,4,6,7,8,10},
	{2,3,4,5,6,7,8,9,10},
	{1,4,5,6,7,8,9,11},
	{1,2,3,4,6,7,8,11},
	{4,5,7,8,9},
	{1,4,5,6,8,9,11},
	{4,5,7,8,9},
	{1,2,3,6,8,10,11},
	{1,2,3,6,8,10,11},
	{1,6,8,11},
	{4,5,7,8,9},
	{4,5,7,8,9},
	{4,5,7,8,9},
	{1,6,7,8,11},
	{1,6,8,11},
	{1,2,3,6,8,10,11},
	{4,5,7,8,9},
	{2,3,4,5,6,9,10},
	{4,5,7,8,9},
	{2,3,6,7,8,10},
	{4,5,9},
	{2,3,4,6,7,8,10},
	{2,3,5,6,9,10},
	{1,2,3,6,8,11},
	{5,9},
	{2,3,4,5,6,7,8,9},
	{2,3,4,5,6,9,10},
	{1,8,11},
	{4,5,7,8,9},
	{2,3,4,6,7,8,10},
	{2,3,4,5,6,7,8,9,10},
	{1,2,4,6,7,8,11},
	{2,4,5,7,8,9},
	{1,2,3,5,6,8,9,11},
	{2,3,6,10},
	{1,6,8,11},
	{4,5,9},
	{1,2,3,6,8,11},
	{1,5,6,8,9,11},
	{7,8},
	{1,8,11},
	{1,2,3,4,5,6,7,8,9,10,11},
	{2,4,5,7,8,9},
	{1,2,4,6,7,8,11},
	{1,2,3,4,5,6,7,8,9,11},
	{2,3,6,10},
	{2,3,4,5,6,7,8,9},
	{6},
	{2,3,4,5,6,7,8,9,10},
	{2,3,4,5,6,9,10},
	{2,3,6,7,8,10},
	{2,3,6,10},
	{2,3,4,5,6,7,8,9,10},
	{2,3,4,5,6,7,8,9,10},
	{2,4,7,8},
	{2,3,4,5,6,7,8,9,10},
	{4,5,9},
	{4,5,7,8,9},
	{7,8},
	{2,3,6,10},
	{4,5,7,8,9},
	{2,3,4,5,6,7,8,9},
	{2,3,6,10},
	{4,5,7,8,9},
	{1,8,11},
	{5,9},
	{1,2,3,6,8,10,11},
	{1,2,3,4,6,7,8,11},
	{2,3,4,6,7,8,10},
	{1,2,4,5,7,8,9,11},
	{2,3,4,5,6,9,10},
	{2,3,6},
	{6},
	{2,3,6,10},
	{2,3,4,5,6,7,8,9,10},
	{1,2,3,6,8,10,11},
	{1,6,8,11},
	{1,6,8,11},
	{5,9},
	{1,4,5,6,7,8,9,11},
	{4,5,7,8,9},
	{7,8},
	{2,3,4,6,7,8,10},
	{}];

POTENTIAL_ACT = [{5,11,12,14,16,17,18,22,23,24,32,36,40,42,44,46,47,49,50,52,53,73,75,76,78,84,85,86,88},
	{2,4,5,6,7,9,10,12,16,17,24,26,28,30,31,32,34,35,38,39,40,41,42,43,46,50,51,52,53,54,55,57,58,59,60,61,62,63,64,68,70,71,75,76,77,78,79,80,82,83,84,91},
	{2,4,5,6,9,10,12,16,17,24,26,28,30,31,32,34,35,38,39,42,43,46,50,53,54,55,57,58,59,60,61,62,64,68,70,71,75,76,77,79,80,82,83,84,91},
	{2,3,4,7,8,9,10,11,12,13,14,15,19,20,21,25,26,27,29,30,34,35,37,38,39,40,41,45,50,51,52,53,55,57,58,61,62,63,64,65,66,69,70,72,76,77,78,79,83,88,89,91},
	{2,3,4,5,6,7,8,10,11,13,14,15,19,20,21,25,26,27,29,31,33,34,35,37,39,41,42,45,47,50,51,53,55,57,58,61,62,64,65,66,69,70,72,74,78,79,83,87,88,89},
	{2,4,5,6,9,10,11,12,14,16,17,18,22,23,24,26,28,30,31,32,34,35,38,39,40,42,43,44,46,47,50,52,53,54,55,56,57,58,59,60,61,62,64,68,70,71,75,76,77,79,80,81,82,83,84,85,86,88,91},
	{2,3,4,7,8,9,10,11,12,13,15,19,20,21,22,25,27,28,30,34,37,38,39,40,41,48,50,51,52,53,55,57,59,61,62,63,64,66,67,69,70,72,76,77,78,83,88,89,90,91},
	{2,3,4,5,7,8,9,10,11,12,13,14,15,16,17,18,19,20,21,22,23,24,25,27,28,30,32,34,36,37,38,39,40,41,42,44,46,47,48,49,50,51,52,53,55,57,59,61,62,63,64,66,67,69,70,72,73,75,76,77,78,83,84,85,86,88,89,90,91},
	{2,3,4,5,6,7,8,10,11,13,14,15,19,20,21,25,26,27,29,31,33,34,35,37,39,41,42,45,47,50,51,53,55,57,58,61,62,64,65,66,69,70,72,74,78,79,83,87,88,89},
	{4,6,9,10,16,17,24,26,28,30,31,35,38,39,43,50,54,57,58,59,60,61,62,64,68,71,75,77,79,82,83,84,91},
	{5,11,12,14,16,17,18,22,23,24,32,36,40,42,44,46,47,49,50,52,53,73,75,76,78,84,85,86,88}];
